
  12    4
  10   10   10   10

   0   0   0   0   0   5 2 3 4 7 11 
   5  10  10  10  10   3 9 6 5 
   1  10  10  10  10   2 10 5 
   7  10  10  10  10   2 9 5 
   3  10  10  10  10   1 8 
   4  10  10  10  10   1 8 
   2  10  10  10  10   1 9 
   1  10  10  10  10   1 12
   2  10  10  10  10   1 12
   5  10  10  10  10   1 12
   4  10  10  10  10   1 12
   0   0   0   0   0   0 
